p cnf 40 130
-2 -1 -3 0
2 1 -3 0
-2 1 3 0
2 -1 3 0
-4 1 0
-4 3 0
-1 -3 4 0
7 5 0
7 -6 0
-5 6 -7 0
8 -7 0
8 1 0
7 -1 -8 0
8 5 -9 0
-8 -5 -9 0
8 -5 9 0
-8 5 9 0
10 4 0
10 9 0
-4 -9 -10 0
-3 1 -11 0
3 -1 -11 0
-3 -1 11 0
3 1 11 0
12 5 0
12 -11 0
-5 11 -12 0
13 2 0
13 -3 0
-2 3 -13 0
16 -14 0
16 -15 0
14 15 -16 0
-17 13 0
-17 -16 0
-13 16 17 0
-19 -18 0
-19 2 0
18 -2 19 0
20 -17 0
20 19 0
17 -19 -20 0
-21 12 0
-21 -20 0
-12 20 21 0
22 10 0
22 21 0
-10 -21 -22 0
23 1 -24 0
-23 -1 -24 0
23 -1 24 0
-23 1 24 0
-25 24 0
-25 -23 0
-24 23 25 0
-26 -6 0
-26 1 0
6 -1 26 0
27 6 0
27 -14 0
-6 14 -27 0
-29 -27 0
-29 -28 0
27 28 29 0
30 26 0
30 -29 0
-26 29 -30 0
-31 25 0
-31 30 0
-25 -30 31 0
23 -28 -32 0
-23 28 -32 0
23 28 32 0
-23 -28 32 0
33 -28 0
33 3 0
28 -3 -33 0
-34 -15 0
-34 -33 0
15 33 34 0
32 -34 -35 0
-32 34 -35 0
32 34 35 0
-32 -34 35 0
-31 35 -36 0
31 -35 -36 0
-31 -35 36 0
31 35 36 0
22 36 -37 0
-22 -36 -37 0
22 -36 37 0
-22 36 37 0
18 -38 -39 0
-18 38 -39 0
18 38 39 0
-18 -38 39 0
40 37 0
40 39 0
-37 -39 -40 0
-12 26 22 -31 -40 39 0
1 10 29 0
-35 -13 -22 -37 0
-30 -23 0
-25 -32 0
10 -12 -13 -9 30 0
-6 9 -1 38 8 -25 0
6 39 -18 28 27 -40 0
-2 -32 3 17 0
-13 -3 22 -31 -14 0
6 26 0
38 -32 -16 0
-10 20 0
3 -7 0
-15 0
21 -40 38 0
-36 18 3 0
13 -23 0
-33 -9 0
20 21 9 32 24 28 0
15 32 7 -38 17 14 0
-17 -24 33 -34 16 0
10 14 0
-19 28 -30 -2 -6 0
40 29 0
-32 -14 -21 4 0
30 -39 7 0
23 21 36 0
39 -19 0
-33 -37 -38 -31 2 -10 0
40 0
